VALUE 1500413
1 98
7 95
8 173
11 162
15 133
21 94
22 176
26 177
27 28
26 28
29 30
30 32
31 84
31 32
35 69
35 36
40 68
41 51
41 42
44 150
44 45
51 192
54 143
68 70
68 69
29 70
84 86
86 88
88 97
94 98
95 99
15 97
98 100
99 108
86 100
108 110
110 136
11 133
136 138
138 148
44 143
45 148
150 151
151 169
136 154
161 163
162 164
163 170
161 164
27 165
41 169
165 170
162 173
154 176
176 177
1 179
7 180
8 181
11 182
15 183
21 184
22 185
26 186
30 187
36 188
40 189
42 190
44 191
54 193

